data/mps_files/q3/141_5.mps
NAME foo
ROWS
 N  OBJ
 E  allocateEach[1]
 E  allocateAllCash
 G  findWorstP[1,2]
 G  findWorstP[1,3]
 G  findWorstP[1,4]
 G  findWorstP[1,5]
 G  findWorstP[1,6]
 G  findWorstP[1,7]
 G  findWorstP[1,8]
 G  findWorstP[2,1]
 G  findWorstP[2,3]
 G  findWorstP[2,4]
 G  findWorstP[2,5]
 G  findWorstP[2,6]
 G  findWorstP[2,7]
 G  findWorstP[2,8]
 G  findWorstP[3,1]
 G  findWorstP[3,2]
 G  findWorstP[3,4]
 G  findWorstP[3,5]
 G  findWorstP[3,6]
 G  findWorstP[3,7]
 G  findWorstP[3,8]
 G  findWorstP[4,1]
 G  findWorstP[4,2]
 G  findWorstP[4,3]
 G  findWorstP[4,5]
 G  findWorstP[4,6]
 G  findWorstP[4,7]
 G  findWorstP[4,8]
 G  findWorstP[5,1]
 G  findWorstP[5,2]
 G  findWorstP[5,3]
 G  findWorstP[5,4]
 G  findWorstP[5,6]
 G  findWorstP[5,7]
 G  findWorstP[5,8]
 G  findWorstP[6,1]
 G  findWorstP[6,2]
 G  findWorstP[6,3]
 G  findWorstP[6,4]
 G  findWorstP[6,5]
 G  findWorstP[6,7]
 G  findWorstP[6,8]
 G  findWorstP[7,1]
 G  findWorstP[7,2]
 G  findWorstP[7,3]
 G  findWorstP[7,4]
 G  findWorstP[7,5]
 G  findWorstP[7,6]
 G  findWorstP[7,8]
 G  findWorstP[8,1]
 G  findWorstP[8,2]
 G  findWorstP[8,3]
 G  findWorstP[8,4]
 G  findWorstP[8,5]
 G  findWorstP[8,6]
 G  findWorstP[8,7]
COLUMNS
    z         OBJ       1
    z         findWorstP[1,2]  1
    z         findWorstP[1,3]  1
    z         findWorstP[1,4]  1
    z         findWorstP[1,5]  1
    z         findWorstP[1,6]  1
    z         findWorstP[1,7]  1
    z         findWorstP[1,8]  1
    z         findWorstP[2,1]  1
    z         findWorstP[2,3]  1
    z         findWorstP[2,4]  1
    z         findWorstP[2,5]  1
    z         findWorstP[2,6]  1
    z         findWorstP[2,7]  1
    z         findWorstP[2,8]  1
    z         findWorstP[3,1]  1
    z         findWorstP[3,2]  1
    z         findWorstP[3,4]  1
    z         findWorstP[3,5]  1
    z         findWorstP[3,6]  1
    z         findWorstP[3,7]  1
    z         findWorstP[3,8]  1
    z         findWorstP[4,1]  1
    z         findWorstP[4,2]  1
    z         findWorstP[4,3]  1
    z         findWorstP[4,5]  1
    z         findWorstP[4,6]  1
    z         findWorstP[4,7]  1
    z         findWorstP[4,8]  1
    z         findWorstP[5,1]  1
    z         findWorstP[5,2]  1
    z         findWorstP[5,3]  1
    z         findWorstP[5,4]  1
    z         findWorstP[5,6]  1
    z         findWorstP[5,7]  1
    z         findWorstP[5,8]  1
    z         findWorstP[6,1]  1
    z         findWorstP[6,2]  1
    z         findWorstP[6,3]  1
    z         findWorstP[6,4]  1
    z         findWorstP[6,5]  1
    z         findWorstP[6,7]  1
    z         findWorstP[6,8]  1
    z         findWorstP[7,1]  1
    z         findWorstP[7,2]  1
    z         findWorstP[7,3]  1
    z         findWorstP[7,4]  1
    z         findWorstP[7,5]  1
    z         findWorstP[7,6]  1
    z         findWorstP[7,8]  1
    z         findWorstP[8,1]  1
    z         findWorstP[8,2]  1
    z         findWorstP[8,3]  1
    z         findWorstP[8,4]  1
    z         findWorstP[8,5]  1
    z         findWorstP[8,6]  1
    z         findWorstP[8,7]  1
    cashProportion[1]  allocateAllCash  1
    cashProportion[1]  findWorstP[1,2]  3.2365951019527456e-01
    cashProportion[1]  findWorstP[1,3]  3.2365951019527456e-01
    cashProportion[1]  findWorstP[1,4]  3.2365951019527456e-01
    cashProportion[1]  findWorstP[1,5]  3.2365951019527456e-01
    cashProportion[1]  findWorstP[1,6]  3.2365951019527456e-01
    cashProportion[1]  findWorstP[1,7]  3.2365951019527456e-01
    cashProportion[1]  findWorstP[1,8]  3.2365951019527456e-01
    cashProportion[1]  findWorstP[2,1]  -0.250354669114579
    cashProportion[1]  findWorstP[3,1]  -5.0522061300101040e-01
    cashProportion[1]  findWorstP[4,1]  -6.1012812690665041e-01
    cashProportion[1]  findWorstP[5,1]  -4.1806020066889626e-01
    cashProportion[1]  findWorstP[6,1]  -0.677659814772984
    cashProportion[1]  findWorstP[7,1]  -2.4584118659346060e-01
    cashProportion[1]  findWorstP[8,1]  -8.0775444264943452e-01
    cashProportion[2]  allocateAllCash  1
    cashProportion[2]  findWorstP[1,2]  -3.2365951019527456e-01
    cashProportion[2]  findWorstP[2,1]  0.250354669114579
    cashProportion[2]  findWorstP[2,3]  0.250354669114579
    cashProportion[2]  findWorstP[2,4]  0.250354669114579
    cashProportion[2]  findWorstP[2,5]  0.250354669114579
    cashProportion[2]  findWorstP[2,6]  0.250354669114579
    cashProportion[2]  findWorstP[2,7]  0.250354669114579
    cashProportion[2]  findWorstP[2,8]  0.250354669114579
    cashProportion[2]  findWorstP[3,2]  -5.0522061300101040e-01
    cashProportion[2]  findWorstP[4,2]  -6.1012812690665041e-01
    cashProportion[2]  findWorstP[5,2]  -4.1806020066889626e-01
    cashProportion[2]  findWorstP[6,2]  -0.677659814772984
    cashProportion[2]  findWorstP[7,2]  -2.4584118659346060e-01
    cashProportion[2]  findWorstP[8,2]  -8.0775444264943452e-01
    cashProportion[3]  allocateAllCash  1
    cashProportion[3]  findWorstP[1,3]  -3.2365951019527456e-01
    cashProportion[3]  findWorstP[2,3]  -0.250354669114579
    cashProportion[3]  findWorstP[3,1]  5.0522061300101040e-01
    cashProportion[3]  findWorstP[3,2]  5.0522061300101040e-01
    cashProportion[3]  findWorstP[3,4]  5.0522061300101040e-01
    cashProportion[3]  findWorstP[3,5]  5.0522061300101040e-01
    cashProportion[3]  findWorstP[3,6]  5.0522061300101040e-01
    cashProportion[3]  findWorstP[3,7]  5.0522061300101040e-01
    cashProportion[3]  findWorstP[3,8]  5.0522061300101040e-01
    cashProportion[3]  findWorstP[4,3]  -6.1012812690665041e-01
    cashProportion[3]  findWorstP[5,3]  -4.1806020066889626e-01
    cashProportion[3]  findWorstP[6,3]  -0.677659814772984
    cashProportion[3]  findWorstP[7,3]  -2.4584118659346060e-01
    cashProportion[3]  findWorstP[8,3]  -8.0775444264943452e-01
    cashProportion[4]  allocateAllCash  1
    cashProportion[4]  findWorstP[1,4]  -3.2365951019527456e-01
    cashProportion[4]  findWorstP[2,4]  -0.250354669114579
    cashProportion[4]  findWorstP[3,4]  -5.0522061300101040e-01
    cashProportion[4]  findWorstP[4,1]  6.1012812690665041e-01
    cashProportion[4]  findWorstP[4,2]  6.1012812690665041e-01
    cashProportion[4]  findWorstP[4,3]  6.1012812690665041e-01
    cashProportion[4]  findWorstP[4,5]  6.1012812690665041e-01
    cashProportion[4]  findWorstP[4,6]  6.1012812690665041e-01
    cashProportion[4]  findWorstP[4,7]  6.1012812690665041e-01
    cashProportion[4]  findWorstP[4,8]  6.1012812690665041e-01
    cashProportion[4]  findWorstP[5,4]  -4.1806020066889626e-01
    cashProportion[4]  findWorstP[6,4]  -0.677659814772984
    cashProportion[4]  findWorstP[7,4]  -2.4584118659346060e-01
    cashProportion[4]  findWorstP[8,4]  -8.0775444264943452e-01
    cashProportion[5]  allocateAllCash  1
    cashProportion[5]  findWorstP[1,5]  -3.2365951019527456e-01
    cashProportion[5]  findWorstP[2,5]  -0.250354669114579
    cashProportion[5]  findWorstP[3,5]  -5.0522061300101040e-01
    cashProportion[5]  findWorstP[4,5]  -6.1012812690665041e-01
    cashProportion[5]  findWorstP[5,1]  4.1806020066889626e-01
    cashProportion[5]  findWorstP[5,2]  4.1806020066889626e-01
    cashProportion[5]  findWorstP[5,3]  4.1806020066889626e-01
    cashProportion[5]  findWorstP[5,4]  4.1806020066889626e-01
    cashProportion[5]  findWorstP[5,6]  4.1806020066889626e-01
    cashProportion[5]  findWorstP[5,7]  4.1806020066889626e-01
    cashProportion[5]  findWorstP[5,8]  4.1806020066889626e-01
    cashProportion[5]  findWorstP[6,5]  -0.677659814772984
    cashProportion[5]  findWorstP[7,5]  -2.4584118659346060e-01
    cashProportion[5]  findWorstP[8,5]  -8.0775444264943452e-01
    cashProportion[6]  allocateAllCash  1
    cashProportion[6]  findWorstP[1,6]  -3.2365951019527456e-01
    cashProportion[6]  findWorstP[2,6]  -0.250354669114579
    cashProportion[6]  findWorstP[3,6]  -5.0522061300101040e-01
    cashProportion[6]  findWorstP[4,6]  -6.1012812690665041e-01
    cashProportion[6]  findWorstP[5,6]  -4.1806020066889626e-01
    cashProportion[6]  findWorstP[6,1]  0.677659814772984
    cashProportion[6]  findWorstP[6,2]  0.677659814772984
    cashProportion[6]  findWorstP[6,3]  0.677659814772984
    cashProportion[6]  findWorstP[6,4]  0.677659814772984
    cashProportion[6]  findWorstP[6,5]  0.677659814772984
    cashProportion[6]  findWorstP[6,7]  0.677659814772984
    cashProportion[6]  findWorstP[6,8]  0.677659814772984
    cashProportion[6]  findWorstP[7,6]  -2.4584118659346060e-01
    cashProportion[6]  findWorstP[8,6]  -8.0775444264943452e-01
    cashProportion[7]  allocateAllCash  1
    cashProportion[7]  findWorstP[1,7]  -3.2365951019527456e-01
    cashProportion[7]  findWorstP[2,7]  -0.250354669114579
    cashProportion[7]  findWorstP[3,7]  -5.0522061300101040e-01
    cashProportion[7]  findWorstP[4,7]  -6.1012812690665041e-01
    cashProportion[7]  findWorstP[5,7]  -4.1806020066889626e-01
    cashProportion[7]  findWorstP[6,7]  -0.677659814772984
    cashProportion[7]  findWorstP[7,1]  2.4584118659346060e-01
    cashProportion[7]  findWorstP[7,2]  2.4584118659346060e-01
    cashProportion[7]  findWorstP[7,3]  2.4584118659346060e-01
    cashProportion[7]  findWorstP[7,4]  2.4584118659346060e-01
    cashProportion[7]  findWorstP[7,5]  2.4584118659346060e-01
    cashProportion[7]  findWorstP[7,6]  2.4584118659346060e-01
    cashProportion[7]  findWorstP[7,8]  2.4584118659346060e-01
    cashProportion[7]  findWorstP[8,7]  -8.0775444264943452e-01
    cashProportion[8]  allocateAllCash  1
    cashProportion[8]  findWorstP[1,8]  -3.2365951019527456e-01
    cashProportion[8]  findWorstP[2,8]  -0.250354669114579
    cashProportion[8]  findWorstP[3,8]  -5.0522061300101040e-01
    cashProportion[8]  findWorstP[4,8]  -6.1012812690665041e-01
    cashProportion[8]  findWorstP[5,8]  -4.1806020066889626e-01
    cashProportion[8]  findWorstP[6,8]  -0.677659814772984
    cashProportion[8]  findWorstP[7,8]  -2.4584118659346060e-01
    cashProportion[8]  findWorstP[8,1]  8.0775444264943452e-01
    cashProportion[8]  findWorstP[8,2]  8.0775444264943452e-01
    cashProportion[8]  findWorstP[8,3]  8.0775444264943452e-01
    cashProportion[8]  findWorstP[8,4]  8.0775444264943452e-01
    cashProportion[8]  findWorstP[8,5]  8.0775444264943452e-01
    cashProportion[8]  findWorstP[8,6]  8.0775444264943452e-01
    cashProportion[8]  findWorstP[8,7]  8.0775444264943452e-01
    MARKER    'MARKER'                 'INTORG'
    x[1,1]    allocateEach[1]  1
    x[1,1]    findWorstP[1,2]  6.7634048980472539e-01
    x[1,1]    findWorstP[1,3]  6.7634048980472539e-01
    x[1,1]    findWorstP[1,4]  6.7634048980472539e-01
    x[1,1]    findWorstP[1,5]  6.7634048980472539e-01
    x[1,1]    findWorstP[1,6]  6.7634048980472539e-01
    x[1,1]    findWorstP[1,7]  6.7634048980472539e-01
    x[1,1]    findWorstP[1,8]  6.7634048980472539e-01
    x[1,1]    findWorstP[2,1]  -7.4964533088542107e-01
    x[1,1]    findWorstP[3,1]  -4.9477938699898960e-01
    x[1,1]    findWorstP[4,1]  -3.8987187309334964e-01
    x[1,1]    findWorstP[5,1]  -5.8193979933110362e-01
    x[1,1]    findWorstP[6,1]  -0.322340185227016
    x[1,1]    findWorstP[7,1]  -7.5415881340653934e-01
    x[1,1]    findWorstP[8,1]  -1.9224555735056545e-01
    x[2,1]    allocateEach[1]  1
    x[2,1]    findWorstP[1,2]  -6.7634048980472539e-01
    x[2,1]    findWorstP[2,1]  7.4964533088542107e-01
    x[2,1]    findWorstP[2,3]  7.4964533088542107e-01
    x[2,1]    findWorstP[2,4]  7.4964533088542107e-01
    x[2,1]    findWorstP[2,5]  7.4964533088542107e-01
    x[2,1]    findWorstP[2,6]  7.4964533088542107e-01
    x[2,1]    findWorstP[2,7]  7.4964533088542107e-01
    x[2,1]    findWorstP[2,8]  7.4964533088542107e-01
    x[2,1]    findWorstP[3,2]  -4.9477938699898960e-01
    x[2,1]    findWorstP[4,2]  -3.8987187309334964e-01
    x[2,1]    findWorstP[5,2]  -5.8193979933110362e-01
    x[2,1]    findWorstP[6,2]  -0.322340185227016
    x[2,1]    findWorstP[7,2]  -7.5415881340653934e-01
    x[2,1]    findWorstP[8,2]  -1.9224555735056545e-01
    x[3,1]    allocateEach[1]  1
    x[3,1]    findWorstP[1,3]  -6.7634048980472539e-01
    x[3,1]    findWorstP[2,3]  -7.4964533088542107e-01
    x[3,1]    findWorstP[3,1]  4.9477938699898960e-01
    x[3,1]    findWorstP[3,2]  4.9477938699898960e-01
    x[3,1]    findWorstP[3,4]  4.9477938699898960e-01
    x[3,1]    findWorstP[3,5]  4.9477938699898960e-01
    x[3,1]    findWorstP[3,6]  4.9477938699898960e-01
    x[3,1]    findWorstP[3,7]  4.9477938699898960e-01
    x[3,1]    findWorstP[3,8]  4.9477938699898960e-01
    x[3,1]    findWorstP[4,3]  -3.8987187309334964e-01
    x[3,1]    findWorstP[5,3]  -5.8193979933110362e-01
    x[3,1]    findWorstP[6,3]  -0.322340185227016
    x[3,1]    findWorstP[7,3]  -7.5415881340653934e-01
    x[3,1]    findWorstP[8,3]  -1.9224555735056545e-01
    x[4,1]    allocateEach[1]  1
    x[4,1]    findWorstP[1,4]  -6.7634048980472539e-01
    x[4,1]    findWorstP[2,4]  -7.4964533088542107e-01
    x[4,1]    findWorstP[3,4]  -4.9477938699898960e-01
    x[4,1]    findWorstP[4,1]  3.8987187309334964e-01
    x[4,1]    findWorstP[4,2]  3.8987187309334964e-01
    x[4,1]    findWorstP[4,3]  3.8987187309334964e-01
    x[4,1]    findWorstP[4,5]  3.8987187309334964e-01
    x[4,1]    findWorstP[4,6]  3.8987187309334964e-01
    x[4,1]    findWorstP[4,7]  3.8987187309334964e-01
    x[4,1]    findWorstP[4,8]  3.8987187309334964e-01
    x[4,1]    findWorstP[5,4]  -5.8193979933110362e-01
    x[4,1]    findWorstP[6,4]  -0.322340185227016
    x[4,1]    findWorstP[7,4]  -7.5415881340653934e-01
    x[4,1]    findWorstP[8,4]  -1.9224555735056545e-01
    x[5,1]    allocateEach[1]  1
    x[5,1]    findWorstP[1,5]  -6.7634048980472539e-01
    x[5,1]    findWorstP[2,5]  -7.4964533088542107e-01
    x[5,1]    findWorstP[3,5]  -4.9477938699898960e-01
    x[5,1]    findWorstP[4,5]  -3.8987187309334964e-01
    x[5,1]    findWorstP[5,1]  5.8193979933110362e-01
    x[5,1]    findWorstP[5,2]  5.8193979933110362e-01
    x[5,1]    findWorstP[5,3]  5.8193979933110362e-01
    x[5,1]    findWorstP[5,4]  5.8193979933110362e-01
    x[5,1]    findWorstP[5,6]  5.8193979933110362e-01
    x[5,1]    findWorstP[5,7]  5.8193979933110362e-01
    x[5,1]    findWorstP[5,8]  5.8193979933110362e-01
    x[5,1]    findWorstP[6,5]  -0.322340185227016
    x[5,1]    findWorstP[7,5]  -7.5415881340653934e-01
    x[5,1]    findWorstP[8,5]  -1.9224555735056545e-01
    x[6,1]    allocateEach[1]  1
    x[6,1]    findWorstP[1,6]  -6.7634048980472539e-01
    x[6,1]    findWorstP[2,6]  -7.4964533088542107e-01
    x[6,1]    findWorstP[3,6]  -4.9477938699898960e-01
    x[6,1]    findWorstP[4,6]  -3.8987187309334964e-01
    x[6,1]    findWorstP[5,6]  -5.8193979933110362e-01
    x[6,1]    findWorstP[6,1]  0.322340185227016
    x[6,1]    findWorstP[6,2]  0.322340185227016
    x[6,1]    findWorstP[6,3]  0.322340185227016
    x[6,1]    findWorstP[6,4]  0.322340185227016
    x[6,1]    findWorstP[6,5]  0.322340185227016
    x[6,1]    findWorstP[6,7]  0.322340185227016
    x[6,1]    findWorstP[6,8]  0.322340185227016
    x[6,1]    findWorstP[7,6]  -7.5415881340653934e-01
    x[6,1]    findWorstP[8,6]  -1.9224555735056545e-01
    x[7,1]    allocateEach[1]  1
    x[7,1]    findWorstP[1,7]  -6.7634048980472539e-01
    x[7,1]    findWorstP[2,7]  -7.4964533088542107e-01
    x[7,1]    findWorstP[3,7]  -4.9477938699898960e-01
    x[7,1]    findWorstP[4,7]  -3.8987187309334964e-01
    x[7,1]    findWorstP[5,7]  -5.8193979933110362e-01
    x[7,1]    findWorstP[6,7]  -0.322340185227016
    x[7,1]    findWorstP[7,1]  7.5415881340653934e-01
    x[7,1]    findWorstP[7,2]  7.5415881340653934e-01
    x[7,1]    findWorstP[7,3]  7.5415881340653934e-01
    x[7,1]    findWorstP[7,4]  7.5415881340653934e-01
    x[7,1]    findWorstP[7,5]  7.5415881340653934e-01
    x[7,1]    findWorstP[7,6]  7.5415881340653934e-01
    x[7,1]    findWorstP[7,8]  7.5415881340653934e-01
    x[7,1]    findWorstP[8,7]  -1.9224555735056545e-01
    x[8,1]    allocateEach[1]  1
    x[8,1]    findWorstP[1,8]  -6.7634048980472539e-01
    x[8,1]    findWorstP[2,8]  -7.4964533088542107e-01
    x[8,1]    findWorstP[3,8]  -4.9477938699898960e-01
    x[8,1]    findWorstP[4,8]  -3.8987187309334964e-01
    x[8,1]    findWorstP[5,8]  -5.8193979933110362e-01
    x[8,1]    findWorstP[6,8]  -0.322340185227016
    x[8,1]    findWorstP[7,8]  -7.5415881340653934e-01
    x[8,1]    findWorstP[8,1]  1.9224555735056545e-01
    x[8,1]    findWorstP[8,2]  1.9224555735056545e-01
    x[8,1]    findWorstP[8,3]  1.9224555735056545e-01
    x[8,1]    findWorstP[8,4]  1.9224555735056545e-01
    x[8,1]    findWorstP[8,5]  1.9224555735056545e-01
    x[8,1]    findWorstP[8,6]  1.9224555735056545e-01
    x[8,1]    findWorstP[8,7]  1.9224555735056545e-01
    MARKER    'MARKER'                 'INTEND'
RHS
    RHS1      allocateEach[1]  1
    RHS1      allocateAllCash  1
BOUNDS
 UP BND1      z         1
 MI BND1      cashProportion[1]
 UP BND1      cashProportion[1]  1
 MI BND1      cashProportion[2]
 UP BND1      cashProportion[2]  1
 MI BND1      cashProportion[3]
 UP BND1      cashProportion[3]  1
 MI BND1      cashProportion[4]
 UP BND1      cashProportion[4]  1
 MI BND1      cashProportion[5]
 UP BND1      cashProportion[5]  1
 MI BND1      cashProportion[6]
 UP BND1      cashProportion[6]  1
 MI BND1      cashProportion[7]
 UP BND1      cashProportion[7]  1
 MI BND1      cashProportion[8]
 UP BND1      cashProportion[8]  1
 BV BND1      x[1,1]  
 BV BND1      x[2,1]  
 BV BND1      x[3,1]  
 BV BND1      x[4,1]  
 BV BND1      x[5,1]  
 BV BND1      x[6,1]  
 BV BND1      x[7,1]  
 BV BND1      x[8,1]  
ENDATA
